# Node Net
8059   1
720   1
2250   1
 48   2
 74   2
 33   2
3511   3
4051   3
  3   3
7381   4
8014   4
7831   4
1081   5
8039   5
5220   5
451   6
8087   6
6300   6
361   7
8089   7
8078   7
8017   8
 26   8
4141   8
8056   9
8096   9
8099   9
8032  10
4680  10
 28  10
5761  11
8011  11
2520  11
 89  12
4770  12
4771  13
6661  13
2790  14
8084  14
 77  15
5850  15
8085  16
8091  16
7290  17
8040  17
